
  22   10
  10   10   10   10   10   10   10   10   10   10

   0   0   0   0   0   0   0   0   0   0   0   1 2 
   7  10   0   0   0   0   0   0   0   0   0   1 3 
   1   0   0   0   0   0   0  10   0   0   0   1 4 
   9   0   0   0   0   0   0   0   0   0  10   1 5 
   4  10   0   0   0   0   0   0   0   0   0   1 6 
   3   0   0   0   0   0   0   0   0  10   0   2 11 7 
   3   0   0   0   0   0   0   0   0  10   0   1 8 
   1   0   0   0   0   0   0  10   0   0   0   1 9 
   7   0   0   0   0   0   0   0   0   0  10   1 10 
  10   0   0   0   0  10   0   0   0   0   0   2 21 12 
   9   0   0   0   0  10   0   0   0   0   0   2 21 13 
   9   0   0   0   0   0  10   0   0   0   0   1 13 
   1   0   0   0   0   0  10   0   0   0   0   1 14 
   7   0   0   0   0   0   0   0  10   0   0   1 15 
  10  10   0   0   0   0   0   0   0   0   0   1 16 
   2   0  10   0   0   0   0   0   0   0   0   1 17 
   6   0   0   0  10   0   0   0   0   0   0   1 18 
   3   0   0   0   0   0  10   0   0   0   0   1 19 
  10   0   0   0   0   0   0   0   0   0  10   1 20 
   3   0   0   0   0  10   0   0   0   0   0   1 22
  10   0   0   0   0   0   0   0  10   0   0   1 22
   0   0   0   0   0   0   0   0   0   0   0   0 
